Set parameter TokenServer to value "hpc-licenses.hpcc.usc.edu"
Set parameter TimeLimit to value 3600
Gurobi Optimizer version 9.5.1 build v9.5.1rc2 (linux64)
Thread count: 20 physical cores, 20 logical processors, using up to 20 threads
Optimize a model with 6007 rows, 4529 columns and 24534 nonzeros
Model fingerprint: 0xec0f8221
Variable types: 4506 continuous, 23 integer (23 binary)
Coefficient statistics:
  Matrix range     [1e+00, 1e+00]
  Objective range  [1e-03, 3e+00]
  Bounds range     [1e+00, 1e+00]
  RHS range        [1e+00, 1e+02]
Presolve removed 1514 rows and 1511 columns
Presolve time: 0.06s
Presolved: 4493 rows, 3018 columns, 21993 nonzeros
Variable types: 2998 continuous, 20 integer (20 binary)
Found heuristic solution: objective 294.9574222
Found heuristic solution: objective 296.1355527

Root relaxation: objective 3.026678e+02, 2456 iterations, 0.08 seconds (0.10 work units)

    Nodes    |    Current Node    |     Objective Bounds      |     Work
 Expl Unexpl |  Obj  Depth IntInf | Incumbent    BestBd   Gap | It/Node Time

     0     0  302.66784    0    2  296.13555  302.66784  2.21%     -    0s
     0     0  302.57865    0    2  296.13555  302.57865  2.18%     -    0s
     0     0  302.20074    0    2  296.13555  302.20074  2.05%     -    0s
     0     0  302.19462    0    2  296.13555  302.19462  2.05%     -    0s
     0     0  301.19686    0    2  296.13555  301.19686  1.71%     -    0s
     0     0  301.19686    0    2  296.13555  301.19686  1.71%     -    0s
     0     0  301.19686    0    2  296.13555  301.19686  1.71%     -    0s
     0     0  300.85369    0    2  296.13555  300.85369  1.59%     -    0s
     0     0  300.21022    0    4  296.13555  300.21022  1.38%     -    0s
     0     0  300.21022    0    4  296.13555  300.21022  1.38%     -    0s
     0     2  300.21022    0    4  296.13555  300.21022  1.38%     -    0s
*   18     2               9     297.3835438  298.83168  0.49%   180    1s

Cutting planes:
  Gomory: 2
  MIR: 65
  Flow cover: 2
  RLT: 10
  Relax-and-lift: 11

Explored 33 nodes (7079 simplex iterations) in 1.22 seconds (1.00 work units)
Thread count was 20 (of 20 available processors)

Solution count 3: 297.384 296.136 294.957 

Optimal solution found (tolerance 1.00e-04)
Best objective 2.973835438461e+02, best bound 2.973835438461e+02, gap 0.0000%



#########node  1
V1.8
#########node  2
0.07766990291262137,0.9223300970873787
#########node  3
1.0,0.0


Total Solving Time 1.643005132675171
obj value 297.38354384606197
Policy Regret train (Sum) 0.5246451196991215
Best Treatment Found train (%) 90.2
treatment classification acc train (%) 29.799999999999997
Policy Regret test (Sum) 110.93848330628616
Best Treatment Found test (%) 62.73
treatment classification acc test (%) 33.45
